(set-logic QF_S)
(declare-const x String)
(assert (str.in.re x (re.inter  (re.++ (re.* (re.union (re.range "\u{00}" "\u{09}") (re.range "\u{0b}" "\u{0c}") (re.range "\u{0e}" "\u{84}") (re.range "\u{86}" "\u{ff}")) ) (re.* (re.union (re.range "\u{00}" "\u{2f}") (re.range "\u{3a}" "\u{40}") (re.range "\u{5b}" "\u{5e}") (re.range "\u{60}" "\u{60}") (re.range "\u{7b}" "\u{a9}") (re.range "\u{ab}" "\u{b4}") (re.range "\u{b6}" "\u{b9}") (re.range "\u{bb}" "\u{bf}") (re.range "\u{d7}" "\u{d7}") (re.range "\u{f7}" "\u{f7}")) ))  (re.++ (re.* (re.union (re.range "\u{00}" "\u{09}") (re.range "\u{0b}" "\u{0c}") (re.range "\u{0e}" "\u{84}") (re.range "\u{86}" "\u{ff}")) ) (re.++  (re.++  (str.to.re "\u{65}") (re.++  (str.to.re "\u{6e}") (re.++  (str.to.re "\u{63}") (re.++  (str.to.re "\u{6f}") (re.++  (str.to.re "\u{64}") (re.++  (str.to.re "\u{69}") (re.++  (str.to.re "\u{6e}") (re.++  (str.to.re "\u{67}")  (str.to.re "\u{3d}"))))))))) (re.* (re.union (re.range "\u{00}" "\u{2f}") (re.range "\u{3a}" "\u{40}") (re.range "\u{5b}" "\u{5e}") (re.range "\u{60}" "\u{60}") (re.range "\u{7b}" "\u{a9}") (re.range "\u{ab}" "\u{b4}") (re.range "\u{b6}" "\u{b9}") (re.range "\u{bb}" "\u{bf}") (re.range "\u{d7}" "\u{d7}") (re.range "\u{f7}" "\u{f7}")) ))) )))
(check-sat)
(get-model)